%chk=test003
#p test hf output=mat
symm=saveOrientation

test

-1  1
o
h  1  1.0

test003.mat

